NAME: S076D1_25
COMMENT: 599.41
VEHICLE: 4
TIME: 60.699
DIMENSION: 76
CAPACITY: 160
DELIVERY_SECTION
0 0 0
1 1 8
2 1 1
3 2 1.6
4 2 1.6
5 2 1.6
6 2 0.2
7 3 8
8 3 1.6
9 3 1.6
10 3 1.6
11 3 1.6
12 3 0.6
13 4 1.6
14 4 1.6
15 4 1.6
16 4 1.6
17 4 0.6
18 5 1.6
19 5 1.6
20 5 0.8
21 6 1.6
22 6 1.6
23 6 0.8
24 7 8
25 7 1.6
26 7 1.6
27 7 1.6
28 7 1.6
29 7 0.6
30 8 1.6
31 8 1.6
32 8 0.8
33 9 1.6
34 9 1.6
35 9 1.6
36 9 0.2
37 10 1.6
38 10 1.4
39 11 8
40 11 1.6
41 11 1.6
42 11 1.6
43 11 1.6
44 11 0.6
45 12 1.6
46 12 0.4
47 13 8
48 13 1.6
49 13 1.4
50 14 1.6
51 14 1.4
52 15 8
53 15 1.6
54 15 1.6
55 15 1.6
56 15 0.2
57 16 1.6
58 16 1.4
59 17 8
60 17 1.6
61 17 1.6
62 17 1.6
63 17 1.6
64 17 0.6
65 18 1.6
66 18 1.4
67 19 8
68 19 1
69 20 1.6
70 20 1.6
71 20 0.8
72 21 8
73 21 1.6
74 21 1.6
75 21 1.6
76 21 1.6
77 21 0.6
78 22 1.6
79 22 1.4
80 23 1.6
81 23 1.6
82 23 0.8
83 24 1.6
84 24 1.6
85 24 1.6
86 24 0.2
87 25 8
88 25 1.6
89 25 1.6
90 25 1.6
91 25 0.2
92 26 1.6
93 26 0.4
94 27 1.6
95 27 1.6
96 27 1.6
97 27 0.2
98 28 1.6
99 28 1.6
100 28 1.6
101 28 0.2
102 29 8
103 29 1
104 30 1.6
105 30 0.4
106 31 8
107 31 1.6
108 31 1.4
109 32 1.6
110 32 1.6
111 32 1.6
112 32 0.2
113 33 1.6
114 33 1.4
115 34 1.6
116 34 0.4
117 35 8
118 35 1.6
119 35 1.6
120 35 1.6
121 35 1.2
122 36 1.6
123 36 1.6
124 36 0.8
125 37 1.6
126 37 1.6
127 37 1.6
128 37 1.2
129 38 1.6
130 38 1.4
131 39 8
132 39 1.6
133 39 1.6
134 39 1.6
135 39 1.6
136 39 0.6
137 40 1.6
138 40 1.4
139 41 8
140 41 1.6
141 41 0.4
142 42 1.6
143 42 1.4
144 43 8
145 43 1.6
146 43 1.6
147 43 1.6
148 43 1.2
149 44 1.6
150 44 0.4
151 45 8
152 45 1.6
153 45 1.6
154 45 1.6
155 45 1.2
156 46 1.6
157 46 1.4
158 47 8
159 47 1
160 48 1.6
161 48 1.4
162 49 8
163 49 1.6
164 49 1.6
165 49 1.6
166 49 1.6
167 49 0.6
168 50 1.6
169 50 1.6
170 50 0.8
171 51 1.6
172 51 1.4
173 52 1.6
174 52 1.6
175 52 1.6
176 52 0.2
177 53 8
178 53 1.6
179 53 1.6
180 53 1.6
181 53 1.6
182 53 0.6
183 54 1.6
184 54 1.6
185 54 0.8
186 55 1.6
187 55 1.6
188 55 1.6
189 55 1.2
190 56 8
191 57 8
192 57 1.6
193 57 1.6
194 57 1.6
195 57 1.6
196 57 0.6
197 58 1.6
198 58 1.6
199 58 1.6
200 58 0.2
201 59 8
202 59 1.6
203 59 1.4
204 60 8
205 60 1.6
206 60 1.4
207 61 8
208 61 1.6
209 61 1.6
210 61 1.6
211 61 0.2
212 62 1.6
213 62 1.6
214 62 1.6
215 62 1.2
216 63 8
217 63 1.6
218 63 1.6
219 63 1.6
220 63 1.2
221 64 8
222 64 1.6
223 64 1.6
224 64 1.6
225 64 0.2
226 65 8
227 65 1.6
228 65 1.4
229 66 8
230 67 8
231 67 1.6
232 67 1.6
233 67 1.6
234 67 1.6
235 67 0.6
236 68 8
237 68 1.6
238 68 1.6
239 68 1.6
240 68 1.6
241 68 0.6
242 69 8
243 69 1.6
244 69 0.4
245 70 8
246 70 1
247 71 8
248 71 1.6
249 71 1.6
250 71 1.6
251 71 1.6
252 71 0.6
253 72 8
254 72 1.6
255 72 1.6
256 72 1.6
257 72 1.6
258 72 0.6
259 73 8
260 74 8
261 74 1.6
262 74 1.4
263 75 8
264 75 1.6
265 75 1.6
266 75 1.6
267 75 0.2
PICKUP_SECTION
NODE_SECTION
40 40

22 22

36 26

21 45

45 35

55 20

33 34

50 50

55 45

26 59

40 66

55 65

35 51

62 35

62 57

62 24

21 36

33 44

 9 56

62 48

66 14

44 13

26 13

11 28

 7 43

17 64

41 46

55 34

35 16

52 26

43 26

31 76

22 53

26 29

50 40

55 50

54 10

60 15

47 66

30 60

30 50

12 17

15 14

16 19

21 48

50 30

51 42

50 15

48 21

12 38

15 56

29 39

54 38

55 57

67 41

10 70

 6 25

65 27

40 60

70 64

64  4

36  6

30 20

20 30

15  5

50 70

57 72

45 42

38 33

50  4

66  8

59  5

35 60

27 24

40 20

40 37
DISTANCE_SECTION
DEPOT_SECTION
0
EOF